
Gurobi 9.0.3 (win64) logging started Sat Feb  5 17:52:28 2022

Changed value of parameter LogFile to logs\CRVRP_5-2-7-100_2_6.LOG
   Prev: logs\CRVRP_5-2-7-100_2_5.LOG  Default: 
Changed value of parameter Seed to 1876377953
   Prev: 255969188  Min: 0  Max: 2000000000  Default: 0
Parameter Threads unchanged
   Value: 2  Min: 0  Max: 1024  Default: 0
Parameter TimeLimit unchanged
   Value: 60.0  Min: 0.0  Max: inf  Default: inf
Parameter Symmetry unchanged
   Value: 2  Min: -1  Max: 2  Default: -1
Parameter Cuts unchanged
   Value: 2  Min: -1  Max: 3  Default: -1
Parameter PreDepRow unchanged
   Value: 1  Min: -1  Max: 1  Default: -1
Parameter ScaleFlag unchanged
   Value: 1  Min: -1  Max: 3  Default: -1
Parameter NormAdjust unchanged
   Value: 0  Min: -1  Max: 3  Default: -1
Gurobi Optimizer version 9.0.3 build v9.0.3rc0 (win64)
Optimize a model with 1001 rows, 810 columns and 4006 nonzeros
Model fingerprint: 0xf8384c0d
Variable types: 32 continuous, 778 integer (522 binary)
Coefficient statistics:
  Matrix range     [1e+00, 1e+06]
  Objective range  [1e+00, 1e+00]
  Bounds range     [1e+00, 1e+04]
  RHS range        [1e+00, 1e+06]
Presolve removed 618 rows and 515 columns
Presolve time: 0.02s
Presolved: 383 rows, 295 columns, 2046 nonzeros
Variable types: 15 continuous, 280 integer (230 binary)

Root relaxation: objective 3.337200e+02, 167 iterations, 0.00 seconds

    Nodes    |    Current Node    |     Objective Bounds      |     Work
 Expl Unexpl |  Obj  Depth IntInf | Incumbent    BestBd   Gap | It/Node Time

     0     0  333.71998    0   23          -  333.71998      -     -    0s
H    0     0                    1002.7182773  333.71998  66.7%     -    0s
H    0     0                     962.2176095  333.71998  65.3%     -    0s
     0     0  335.57647    0   55  962.21761  335.57647  65.1%     -    0s
H    0     0                     766.4865411  335.57647  56.2%     -    0s
     0     0  339.38769    0   48  766.48654  339.38769  55.7%     -    0s
     0     0  339.64647    0   44  766.48654  339.64647  55.7%     -    0s
     0     0  339.68677    0   48  766.48654  339.68677  55.7%     -    0s
     0     0  339.68677    0   48  766.48654  339.68677  55.7%     -    0s
     0     0  350.52752    0   64  766.48654  350.52752  54.3%     -    0s
H    0     0                     741.8530363  350.52752  52.7%     -    0s
H    0     0                     728.9988805  350.52752  51.9%     -    0s
     0     0  350.56802    0   64  728.99888  350.56802  51.9%     -    0s
     0     0  360.76913    0   50  728.99888  360.76913  50.5%     -    0s
H    0     0                     616.8530363  360.76913  41.5%     -    0s
     0     0  360.76913    0   50  616.85304  360.76913  41.5%     -    0s
     0     0  362.95125    0   48  616.85304  362.95125  41.2%     -    0s
     0     0  362.95125    0   46  616.85304  362.95125  41.2%     -    0s
     0     0  371.74213    0   50  616.85304  371.74213  39.7%     -    0s
H    0     0                     609.1828103  371.74213  39.0%     -    0s
H    0     0                     567.6305918  371.74213  34.5%     -    0s
     0     0  372.57049    0   48  567.63059  372.57049  34.4%     -    0s
     0     0  372.57049    0   48  567.63059  372.57049  34.4%     -    0s
     0     0  372.69683    0   53  567.63059  372.69683  34.3%     -    0s
     0     0  372.69683    0   55  567.63059  372.69683  34.3%     -    0s
     0     0  373.64151    0   47  567.63059  373.64151  34.2%     -    0s
     0     0  373.64151    0   55  567.63059  373.64151  34.2%     -    0s
     0     0  374.12860    0   55  567.63059  374.12860  34.1%     -    0s
     0     0  374.12860    0   55  567.63059  374.12860  34.1%     -    0s
     0     0  374.15609    0   61  567.63059  374.15609  34.1%     -    0s
H    0     0                     555.3110694  374.15609  32.6%     -    0s
     0     0  374.16754    0   63  555.31107  374.16754  32.6%     -    0s
     0     0  374.19477    0   60  555.31107  374.19477  32.6%     -    0s
     0     0  374.19477    0   50  555.31107  374.19477  32.6%     -    0s
     0     2  374.58473    0   47  555.31107  374.58473  32.5%     -    0s
H   29    32                     555.3110693  392.13805  29.4%  14.4    0s
H   65    55                     530.0876854  392.13805  26.0%  11.9    0s
*  170   106              34     525.5334167  395.92094  24.7%  11.9    0s
*  218   108              25     514.1895156  396.04383  23.0%  11.5    0s
*  219   108              25     511.5412053  396.04383  22.6%  11.5    0s
*  297   121              34     496.7885307  408.62255  17.7%  11.0    1s
H  352   104                     485.7240517  438.91061  9.64%  10.6    1s
* 1190    83              24     480.7240517  474.09019  1.38%  14.1    1s
* 1242    80              23     474.0901877  474.09019  0.00%  13.8    2s

Cutting planes:
  Gomory: 7
  Cover: 14
  Implied bound: 57
  Projected implied bound: 1
  Clique: 11
  MIR: 52
  Flow cover: 145
  GUB cover: 1
  Inf proof: 4
  RLT: 147
  Relax-and-lift: 32

Explored 1244 nodes (18308 simplex iterations) in 2.02 seconds
Thread count was 2 (of 8 available processors)

Solution count 10: 474.09 480.724 485.724 ... 567.631

Optimal solution found (tolerance 1.00e-04)
Best objective 4.740901877086e+02, best bound 4.740901877086e+02, gap 0.0000%
Discarded solution information
